
100
24231

683 683
92 92
618 618
842 842
835 835
516 516
632 632
370 370
529 529
108 108
683 683
601 601
282 282
379 379
737 737
444 444
960 960
972 972
839 839
92 92
76 76
289 289
362 362
705 705
827 827
563 563
640 640
574 574
35 35
527 527
214 214
417 417
9 9
656 656
911 911
69 69
581 581
24 24
352 352
160 160
861 861
729 729
897 897
218 218
719 719
700 700
511 511
917 917
625 625
283 283
718 718
482 482
214 214
618 618
49 49
450 450
557 557
3 3
649 649
89 89
650 650
342 342
30 30
1000 1000
65 65
157 157
506 506
246 246
531 531
475 475
577 577
544 544
295 295
212 212
695 695
429 429
521 521
916 916
9 9
278 278
564 564
54 54
754 754
402 402
317 317
195 195
967 967
47 47
822 822
705 705
898 898
702 702
347 347
550 550
922 922
41 41
850 850
674 674
197 197
967 967
